107524
6, 79, 28, 8, 83, 63, 39, 41, 52, 78, 69, 25, 42, 55, 23, 12, 3, 57, 49, 34, 47, 60, 81, 43, 72, 51, 56, 7, 17, 32, 82, 22, 44, 68, 59, 53, 4, 50, 65, 31, 24, 19, 5, 48, 18, 37, 13, 73, 64, 1, 10, 29, 14, 76, 67, 20, 66, 36, 26, 70, 62, 80, 45, 46, 54, 71, 21, 9, 77, 58, 74, 40, 75, 11, 33, 27, 16, 38, 35, 30, 2, 15, 61
